6081
1 0 0 0 0 0 0 0 1 1 0 0 0 0 1 1 0 0 1 0 0 0 0 0 0 0 0 0 1 1 
18 8 15 28 0 9 9 8 28 29 28 28 14 9 18 18 8 15 18 0 0 9 0 8 8 14 29 18 29 29 29 28 14 14 0 9 0 18 15 18 18 18 28 28 29 9 9 0 0 15 8 0 9 18 18 18 0 0 14 29 29 29 29 29 28 29 29 29 29 29 
